c *********************************
c * Circuit generated by BenCGen
c *
c * Parity_353
c *
c * Ports with 1 gate(s): 1
c * Ports with 2 gate(s): 353
c * Total gates: 354
c *********************************
p cnf 707 1413
1 356 0
-1 -356 0
1 -355 0
356 -355 0
-1 -356 355 0
1 2 -357 0
-1 2 357 0
1 -2 357 0
-1 -2 -357 0
3 4 -358 0
-3 4 358 0
3 -4 358 0
-3 -4 -358 0
5 6 -359 0
-5 6 359 0
5 -6 359 0
-5 -6 -359 0
7 8 -360 0
-7 8 360 0
7 -8 360 0
-7 -8 -360 0
9 10 -361 0
-9 10 361 0
9 -10 361 0
-9 -10 -361 0
11 12 -362 0
-11 12 362 0
11 -12 362 0
-11 -12 -362 0
13 14 -363 0
-13 14 363 0
13 -14 363 0
-13 -14 -363 0
15 16 -364 0
-15 16 364 0
15 -16 364 0
-15 -16 -364 0
17 18 -365 0
-17 18 365 0
17 -18 365 0
-17 -18 -365 0
19 20 -366 0
-19 20 366 0
19 -20 366 0
-19 -20 -366 0
21 22 -367 0
-21 22 367 0
21 -22 367 0
-21 -22 -367 0
23 24 -368 0
-23 24 368 0
23 -24 368 0
-23 -24 -368 0
25 26 -369 0
-25 26 369 0
25 -26 369 0
-25 -26 -369 0
27 28 -370 0
-27 28 370 0
27 -28 370 0
-27 -28 -370 0
29 30 -371 0
-29 30 371 0
29 -30 371 0
-29 -30 -371 0
31 32 -372 0
-31 32 372 0
31 -32 372 0
-31 -32 -372 0
33 34 -373 0
-33 34 373 0
33 -34 373 0
-33 -34 -373 0
35 36 -374 0
-35 36 374 0
35 -36 374 0
-35 -36 -374 0
37 38 -375 0
-37 38 375 0
37 -38 375 0
-37 -38 -375 0
39 40 -376 0
-39 40 376 0
39 -40 376 0
-39 -40 -376 0
41 42 -377 0
-41 42 377 0
41 -42 377 0
-41 -42 -377 0
43 44 -378 0
-43 44 378 0
43 -44 378 0
-43 -44 -378 0
45 46 -379 0
-45 46 379 0
45 -46 379 0
-45 -46 -379 0
47 48 -380 0
-47 48 380 0
47 -48 380 0
-47 -48 -380 0
49 50 -381 0
-49 50 381 0
49 -50 381 0
-49 -50 -381 0
51 52 -382 0
-51 52 382 0
51 -52 382 0
-51 -52 -382 0
53 54 -383 0
-53 54 383 0
53 -54 383 0
-53 -54 -383 0
55 56 -384 0
-55 56 384 0
55 -56 384 0
-55 -56 -384 0
57 58 -385 0
-57 58 385 0
57 -58 385 0
-57 -58 -385 0
59 60 -386 0
-59 60 386 0
59 -60 386 0
-59 -60 -386 0
61 62 -387 0
-61 62 387 0
61 -62 387 0
-61 -62 -387 0
63 64 -388 0
-63 64 388 0
63 -64 388 0
-63 -64 -388 0
65 66 -389 0
-65 66 389 0
65 -66 389 0
-65 -66 -389 0
67 68 -390 0
-67 68 390 0
67 -68 390 0
-67 -68 -390 0
69 70 -391 0
-69 70 391 0
69 -70 391 0
-69 -70 -391 0
71 72 -392 0
-71 72 392 0
71 -72 392 0
-71 -72 -392 0
73 74 -393 0
-73 74 393 0
73 -74 393 0
-73 -74 -393 0
75 76 -394 0
-75 76 394 0
75 -76 394 0
-75 -76 -394 0
77 78 -395 0
-77 78 395 0
77 -78 395 0
-77 -78 -395 0
79 80 -396 0
-79 80 396 0
79 -80 396 0
-79 -80 -396 0
81 82 -397 0
-81 82 397 0
81 -82 397 0
-81 -82 -397 0
83 84 -398 0
-83 84 398 0
83 -84 398 0
-83 -84 -398 0
85 86 -399 0
-85 86 399 0
85 -86 399 0
-85 -86 -399 0
87 88 -400 0
-87 88 400 0
87 -88 400 0
-87 -88 -400 0
89 90 -401 0
-89 90 401 0
89 -90 401 0
-89 -90 -401 0
91 92 -402 0
-91 92 402 0
91 -92 402 0
-91 -92 -402 0
93 94 -403 0
-93 94 403 0
93 -94 403 0
-93 -94 -403 0
95 96 -404 0
-95 96 404 0
95 -96 404 0
-95 -96 -404 0
97 98 -405 0
-97 98 405 0
97 -98 405 0
-97 -98 -405 0
99 100 -406 0
-99 100 406 0
99 -100 406 0
-99 -100 -406 0
101 102 -407 0
-101 102 407 0
101 -102 407 0
-101 -102 -407 0
103 104 -408 0
-103 104 408 0
103 -104 408 0
-103 -104 -408 0
105 106 -409 0
-105 106 409 0
105 -106 409 0
-105 -106 -409 0
107 108 -410 0
-107 108 410 0
107 -108 410 0
-107 -108 -410 0
109 110 -411 0
-109 110 411 0
109 -110 411 0
-109 -110 -411 0
111 112 -412 0
-111 112 412 0
111 -112 412 0
-111 -112 -412 0
113 114 -413 0
-113 114 413 0
113 -114 413 0
-113 -114 -413 0
115 116 -414 0
-115 116 414 0
115 -116 414 0
-115 -116 -414 0
117 118 -415 0
-117 118 415 0
117 -118 415 0
-117 -118 -415 0
119 120 -416 0
-119 120 416 0
119 -120 416 0
-119 -120 -416 0
121 122 -417 0
-121 122 417 0
121 -122 417 0
-121 -122 -417 0
123 124 -418 0
-123 124 418 0
123 -124 418 0
-123 -124 -418 0
125 126 -419 0
-125 126 419 0
125 -126 419 0
-125 -126 -419 0
127 128 -420 0
-127 128 420 0
127 -128 420 0
-127 -128 -420 0
129 130 -421 0
-129 130 421 0
129 -130 421 0
-129 -130 -421 0
131 132 -422 0
-131 132 422 0
131 -132 422 0
-131 -132 -422 0
133 134 -423 0
-133 134 423 0
133 -134 423 0
-133 -134 -423 0
135 136 -424 0
-135 136 424 0
135 -136 424 0
-135 -136 -424 0
137 138 -425 0
-137 138 425 0
137 -138 425 0
-137 -138 -425 0
139 140 -426 0
-139 140 426 0
139 -140 426 0
-139 -140 -426 0
141 142 -427 0
-141 142 427 0
141 -142 427 0
-141 -142 -427 0
143 144 -428 0
-143 144 428 0
143 -144 428 0
-143 -144 -428 0
145 146 -429 0
-145 146 429 0
145 -146 429 0
-145 -146 -429 0
147 148 -430 0
-147 148 430 0
147 -148 430 0
-147 -148 -430 0
149 150 -431 0
-149 150 431 0
149 -150 431 0
-149 -150 -431 0
151 152 -432 0
-151 152 432 0
151 -152 432 0
-151 -152 -432 0
153 154 -433 0
-153 154 433 0
153 -154 433 0
-153 -154 -433 0
155 156 -434 0
-155 156 434 0
155 -156 434 0
-155 -156 -434 0
157 158 -435 0
-157 158 435 0
157 -158 435 0
-157 -158 -435 0
159 160 -436 0
-159 160 436 0
159 -160 436 0
-159 -160 -436 0
161 162 -437 0
-161 162 437 0
161 -162 437 0
-161 -162 -437 0
163 164 -438 0
-163 164 438 0
163 -164 438 0
-163 -164 -438 0
165 166 -439 0
-165 166 439 0
165 -166 439 0
-165 -166 -439 0
167 168 -440 0
-167 168 440 0
167 -168 440 0
-167 -168 -440 0
169 170 -441 0
-169 170 441 0
169 -170 441 0
-169 -170 -441 0
171 172 -442 0
-171 172 442 0
171 -172 442 0
-171 -172 -442 0
173 174 -443 0
-173 174 443 0
173 -174 443 0
-173 -174 -443 0
175 176 -444 0
-175 176 444 0
175 -176 444 0
-175 -176 -444 0
177 178 -445 0
-177 178 445 0
177 -178 445 0
-177 -178 -445 0
179 180 -446 0
-179 180 446 0
179 -180 446 0
-179 -180 -446 0
181 182 -447 0
-181 182 447 0
181 -182 447 0
-181 -182 -447 0
183 184 -448 0
-183 184 448 0
183 -184 448 0
-183 -184 -448 0
185 186 -449 0
-185 186 449 0
185 -186 449 0
-185 -186 -449 0
187 188 -450 0
-187 188 450 0
187 -188 450 0
-187 -188 -450 0
189 190 -451 0
-189 190 451 0
189 -190 451 0
-189 -190 -451 0
191 192 -452 0
-191 192 452 0
191 -192 452 0
-191 -192 -452 0
193 194 -453 0
-193 194 453 0
193 -194 453 0
-193 -194 -453 0
195 196 -454 0
-195 196 454 0
195 -196 454 0
-195 -196 -454 0
197 198 -455 0
-197 198 455 0
197 -198 455 0
-197 -198 -455 0
199 200 -456 0
-199 200 456 0
199 -200 456 0
-199 -200 -456 0
201 202 -457 0
-201 202 457 0
201 -202 457 0
-201 -202 -457 0
203 204 -458 0
-203 204 458 0
203 -204 458 0
-203 -204 -458 0
205 206 -459 0
-205 206 459 0
205 -206 459 0
-205 -206 -459 0
207 208 -460 0
-207 208 460 0
207 -208 460 0
-207 -208 -460 0
209 210 -461 0
-209 210 461 0
209 -210 461 0
-209 -210 -461 0
211 212 -462 0
-211 212 462 0
211 -212 462 0
-211 -212 -462 0
213 214 -463 0
-213 214 463 0
213 -214 463 0
-213 -214 -463 0
215 216 -464 0
-215 216 464 0
215 -216 464 0
-215 -216 -464 0
217 218 -465 0
-217 218 465 0
217 -218 465 0
-217 -218 -465 0
219 220 -466 0
-219 220 466 0
219 -220 466 0
-219 -220 -466 0
221 222 -467 0
-221 222 467 0
221 -222 467 0
-221 -222 -467 0
223 224 -468 0
-223 224 468 0
223 -224 468 0
-223 -224 -468 0
225 226 -469 0
-225 226 469 0
225 -226 469 0
-225 -226 -469 0
227 228 -470 0
-227 228 470 0
227 -228 470 0
-227 -228 -470 0
229 230 -471 0
-229 230 471 0
229 -230 471 0
-229 -230 -471 0
231 232 -472 0
-231 232 472 0
231 -232 472 0
-231 -232 -472 0
233 234 -473 0
-233 234 473 0
233 -234 473 0
-233 -234 -473 0
235 236 -474 0
-235 236 474 0
235 -236 474 0
-235 -236 -474 0
237 238 -475 0
-237 238 475 0
237 -238 475 0
-237 -238 -475 0
239 240 -476 0
-239 240 476 0
239 -240 476 0
-239 -240 -476 0
241 242 -477 0
-241 242 477 0
241 -242 477 0
-241 -242 -477 0
243 244 -478 0
-243 244 478 0
243 -244 478 0
-243 -244 -478 0
245 246 -479 0
-245 246 479 0
245 -246 479 0
-245 -246 -479 0
247 248 -480 0
-247 248 480 0
247 -248 480 0
-247 -248 -480 0
249 250 -481 0
-249 250 481 0
249 -250 481 0
-249 -250 -481 0
251 252 -482 0
-251 252 482 0
251 -252 482 0
-251 -252 -482 0
253 254 -483 0
-253 254 483 0
253 -254 483 0
-253 -254 -483 0
255 256 -484 0
-255 256 484 0
255 -256 484 0
-255 -256 -484 0
257 258 -485 0
-257 258 485 0
257 -258 485 0
-257 -258 -485 0
259 260 -486 0
-259 260 486 0
259 -260 486 0
-259 -260 -486 0
261 262 -487 0
-261 262 487 0
261 -262 487 0
-261 -262 -487 0
263 264 -488 0
-263 264 488 0
263 -264 488 0
-263 -264 -488 0
265 266 -489 0
-265 266 489 0
265 -266 489 0
-265 -266 -489 0
267 268 -490 0
-267 268 490 0
267 -268 490 0
-267 -268 -490 0
269 270 -491 0
-269 270 491 0
269 -270 491 0
-269 -270 -491 0
271 272 -492 0
-271 272 492 0
271 -272 492 0
-271 -272 -492 0
273 274 -493 0
-273 274 493 0
273 -274 493 0
-273 -274 -493 0
275 276 -494 0
-275 276 494 0
275 -276 494 0
-275 -276 -494 0
277 278 -495 0
-277 278 495 0
277 -278 495 0
-277 -278 -495 0
279 280 -496 0
-279 280 496 0
279 -280 496 0
-279 -280 -496 0
281 282 -497 0
-281 282 497 0
281 -282 497 0
-281 -282 -497 0
283 284 -498 0
-283 284 498 0
283 -284 498 0
-283 -284 -498 0
285 286 -499 0
-285 286 499 0
285 -286 499 0
-285 -286 -499 0
287 288 -500 0
-287 288 500 0
287 -288 500 0
-287 -288 -500 0
289 290 -501 0
-289 290 501 0
289 -290 501 0
-289 -290 -501 0
291 292 -502 0
-291 292 502 0
291 -292 502 0
-291 -292 -502 0
293 294 -503 0
-293 294 503 0
293 -294 503 0
-293 -294 -503 0
295 296 -504 0
-295 296 504 0
295 -296 504 0
-295 -296 -504 0
297 298 -505 0
-297 298 505 0
297 -298 505 0
-297 -298 -505 0
299 300 -506 0
-299 300 506 0
299 -300 506 0
-299 -300 -506 0
301 302 -507 0
-301 302 507 0
301 -302 507 0
-301 -302 -507 0
303 304 -508 0
-303 304 508 0
303 -304 508 0
-303 -304 -508 0
305 306 -509 0
-305 306 509 0
305 -306 509 0
-305 -306 -509 0
307 308 -510 0
-307 308 510 0
307 -308 510 0
-307 -308 -510 0
309 310 -511 0
-309 310 511 0
309 -310 511 0
-309 -310 -511 0
311 312 -512 0
-311 312 512 0
311 -312 512 0
-311 -312 -512 0
313 314 -513 0
-313 314 513 0
313 -314 513 0
-313 -314 -513 0
315 316 -514 0
-315 316 514 0
315 -316 514 0
-315 -316 -514 0
317 318 -515 0
-317 318 515 0
317 -318 515 0
-317 -318 -515 0
319 320 -516 0
-319 320 516 0
319 -320 516 0
-319 -320 -516 0
321 322 -517 0
-321 322 517 0
321 -322 517 0
-321 -322 -517 0
323 324 -518 0
-323 324 518 0
323 -324 518 0
-323 -324 -518 0
325 326 -519 0
-325 326 519 0
325 -326 519 0
-325 -326 -519 0
327 328 -520 0
-327 328 520 0
327 -328 520 0
-327 -328 -520 0
329 330 -521 0
-329 330 521 0
329 -330 521 0
-329 -330 -521 0
331 332 -522 0
-331 332 522 0
331 -332 522 0
-331 -332 -522 0
333 334 -523 0
-333 334 523 0
333 -334 523 0
-333 -334 -523 0
335 336 -524 0
-335 336 524 0
335 -336 524 0
-335 -336 -524 0
337 338 -525 0
-337 338 525 0
337 -338 525 0
-337 -338 -525 0
339 340 -526 0
-339 340 526 0
339 -340 526 0
-339 -340 -526 0
341 342 -527 0
-341 342 527 0
341 -342 527 0
-341 -342 -527 0
343 344 -528 0
-343 344 528 0
343 -344 528 0
-343 -344 -528 0
345 346 -529 0
-345 346 529 0
345 -346 529 0
-345 -346 -529 0
347 348 -530 0
-347 348 530 0
347 -348 530 0
-347 -348 -530 0
349 350 -531 0
-349 350 531 0
349 -350 531 0
-349 -350 -531 0
351 352 -532 0
-351 352 532 0
351 -352 532 0
-351 -352 -532 0
357 358 -533 0
-357 358 533 0
357 -358 533 0
-357 -358 -533 0
359 360 -534 0
-359 360 534 0
359 -360 534 0
-359 -360 -534 0
361 362 -535 0
-361 362 535 0
361 -362 535 0
-361 -362 -535 0
363 364 -536 0
-363 364 536 0
363 -364 536 0
-363 -364 -536 0
365 366 -537 0
-365 366 537 0
365 -366 537 0
-365 -366 -537 0
367 368 -538 0
-367 368 538 0
367 -368 538 0
-367 -368 -538 0
369 370 -539 0
-369 370 539 0
369 -370 539 0
-369 -370 -539 0
371 372 -540 0
-371 372 540 0
371 -372 540 0
-371 -372 -540 0
373 374 -541 0
-373 374 541 0
373 -374 541 0
-373 -374 -541 0
375 376 -542 0
-375 376 542 0
375 -376 542 0
-375 -376 -542 0
377 378 -543 0
-377 378 543 0
377 -378 543 0
-377 -378 -543 0
379 380 -544 0
-379 380 544 0
379 -380 544 0
-379 -380 -544 0
381 382 -545 0
-381 382 545 0
381 -382 545 0
-381 -382 -545 0
383 384 -546 0
-383 384 546 0
383 -384 546 0
-383 -384 -546 0
385 386 -547 0
-385 386 547 0
385 -386 547 0
-385 -386 -547 0
387 388 -548 0
-387 388 548 0
387 -388 548 0
-387 -388 -548 0
389 390 -549 0
-389 390 549 0
389 -390 549 0
-389 -390 -549 0
391 392 -550 0
-391 392 550 0
391 -392 550 0
-391 -392 -550 0
393 394 -551 0
-393 394 551 0
393 -394 551 0
-393 -394 -551 0
395 396 -552 0
-395 396 552 0
395 -396 552 0
-395 -396 -552 0
397 398 -553 0
-397 398 553 0
397 -398 553 0
-397 -398 -553 0
399 400 -554 0
-399 400 554 0
399 -400 554 0
-399 -400 -554 0
401 402 -555 0
-401 402 555 0
401 -402 555 0
-401 -402 -555 0
403 404 -556 0
-403 404 556 0
403 -404 556 0
-403 -404 -556 0
405 406 -557 0
-405 406 557 0
405 -406 557 0
-405 -406 -557 0
407 408 -558 0
-407 408 558 0
407 -408 558 0
-407 -408 -558 0
409 410 -559 0
-409 410 559 0
409 -410 559 0
-409 -410 -559 0
411 412 -560 0
-411 412 560 0
411 -412 560 0
-411 -412 -560 0
413 414 -561 0
-413 414 561 0
413 -414 561 0
-413 -414 -561 0
415 416 -562 0
-415 416 562 0
415 -416 562 0
-415 -416 -562 0
417 418 -563 0
-417 418 563 0
417 -418 563 0
-417 -418 -563 0
419 420 -564 0
-419 420 564 0
419 -420 564 0
-419 -420 -564 0
421 422 -565 0
-421 422 565 0
421 -422 565 0
-421 -422 -565 0
423 424 -566 0
-423 424 566 0
423 -424 566 0
-423 -424 -566 0
425 426 -567 0
-425 426 567 0
425 -426 567 0
-425 -426 -567 0
427 428 -568 0
-427 428 568 0
427 -428 568 0
-427 -428 -568 0
429 430 -569 0
-429 430 569 0
429 -430 569 0
-429 -430 -569 0
431 432 -570 0
-431 432 570 0
431 -432 570 0
-431 -432 -570 0
433 434 -571 0
-433 434 571 0
433 -434 571 0
-433 -434 -571 0
435 436 -572 0
-435 436 572 0
435 -436 572 0
-435 -436 -572 0
437 438 -573 0
-437 438 573 0
437 -438 573 0
-437 -438 -573 0
439 440 -574 0
-439 440 574 0
439 -440 574 0
-439 -440 -574 0
441 442 -575 0
-441 442 575 0
441 -442 575 0
-441 -442 -575 0
443 444 -576 0
-443 444 576 0
443 -444 576 0
-443 -444 -576 0
445 446 -577 0
-445 446 577 0
445 -446 577 0
-445 -446 -577 0
447 448 -578 0
-447 448 578 0
447 -448 578 0
-447 -448 -578 0
449 450 -579 0
-449 450 579 0
449 -450 579 0
-449 -450 -579 0
451 452 -580 0
-451 452 580 0
451 -452 580 0
-451 -452 -580 0
453 454 -581 0
-453 454 581 0
453 -454 581 0
-453 -454 -581 0
455 456 -582 0
-455 456 582 0
455 -456 582 0
-455 -456 -582 0
457 458 -583 0
-457 458 583 0
457 -458 583 0
-457 -458 -583 0
459 460 -584 0
-459 460 584 0
459 -460 584 0
-459 -460 -584 0
461 462 -585 0
-461 462 585 0
461 -462 585 0
-461 -462 -585 0
463 464 -586 0
-463 464 586 0
463 -464 586 0
-463 -464 -586 0
465 466 -587 0
-465 466 587 0
465 -466 587 0
-465 -466 -587 0
467 468 -588 0
-467 468 588 0
467 -468 588 0
-467 -468 -588 0
469 470 -589 0
-469 470 589 0
469 -470 589 0
-469 -470 -589 0
471 472 -590 0
-471 472 590 0
471 -472 590 0
-471 -472 -590 0
473 474 -591 0
-473 474 591 0
473 -474 591 0
-473 -474 -591 0
475 476 -592 0
-475 476 592 0
475 -476 592 0
-475 -476 -592 0
477 478 -593 0
-477 478 593 0
477 -478 593 0
-477 -478 -593 0
479 480 -594 0
-479 480 594 0
479 -480 594 0
-479 -480 -594 0
481 482 -595 0
-481 482 595 0
481 -482 595 0
-481 -482 -595 0
483 484 -596 0
-483 484 596 0
483 -484 596 0
-483 -484 -596 0
485 486 -597 0
-485 486 597 0
485 -486 597 0
-485 -486 -597 0
487 488 -598 0
-487 488 598 0
487 -488 598 0
-487 -488 -598 0
489 490 -599 0
-489 490 599 0
489 -490 599 0
-489 -490 -599 0
491 492 -600 0
-491 492 600 0
491 -492 600 0
-491 -492 -600 0
493 494 -601 0
-493 494 601 0
493 -494 601 0
-493 -494 -601 0
495 496 -602 0
-495 496 602 0
495 -496 602 0
-495 -496 -602 0
497 498 -603 0
-497 498 603 0
497 -498 603 0
-497 -498 -603 0
499 500 -604 0
-499 500 604 0
499 -500 604 0
-499 -500 -604 0
501 502 -605 0
-501 502 605 0
501 -502 605 0
-501 -502 -605 0
503 504 -606 0
-503 504 606 0
503 -504 606 0
-503 -504 -606 0
505 506 -607 0
-505 506 607 0
505 -506 607 0
-505 -506 -607 0
507 508 -608 0
-507 508 608 0
507 -508 608 0
-507 -508 -608 0
509 510 -609 0
-509 510 609 0
509 -510 609 0
-509 -510 -609 0
511 512 -610 0
-511 512 610 0
511 -512 610 0
-511 -512 -610 0
513 514 -611 0
-513 514 611 0
513 -514 611 0
-513 -514 -611 0
515 516 -612 0
-515 516 612 0
515 -516 612 0
-515 -516 -612 0
517 518 -613 0
-517 518 613 0
517 -518 613 0
-517 -518 -613 0
519 520 -614 0
-519 520 614 0
519 -520 614 0
-519 -520 -614 0
521 522 -615 0
-521 522 615 0
521 -522 615 0
-521 -522 -615 0
523 524 -616 0
-523 524 616 0
523 -524 616 0
-523 -524 -616 0
525 526 -617 0
-525 526 617 0
525 -526 617 0
-525 -526 -617 0
527 528 -618 0
-527 528 618 0
527 -528 618 0
-527 -528 -618 0
529 530 -619 0
-529 530 619 0
529 -530 619 0
-529 -530 -619 0
531 532 -620 0
-531 532 620 0
531 -532 620 0
-531 -532 -620 0
533 534 -621 0
-533 534 621 0
533 -534 621 0
-533 -534 -621 0
535 536 -622 0
-535 536 622 0
535 -536 622 0
-535 -536 -622 0
537 538 -623 0
-537 538 623 0
537 -538 623 0
-537 -538 -623 0
539 540 -624 0
-539 540 624 0
539 -540 624 0
-539 -540 -624 0
541 542 -625 0
-541 542 625 0
541 -542 625 0
-541 -542 -625 0
543 544 -626 0
-543 544 626 0
543 -544 626 0
-543 -544 -626 0
545 546 -627 0
-545 546 627 0
545 -546 627 0
-545 -546 -627 0
547 548 -628 0
-547 548 628 0
547 -548 628 0
-547 -548 -628 0
549 550 -629 0
-549 550 629 0
549 -550 629 0
-549 -550 -629 0
551 552 -630 0
-551 552 630 0
551 -552 630 0
-551 -552 -630 0
553 554 -631 0
-553 554 631 0
553 -554 631 0
-553 -554 -631 0
555 556 -632 0
-555 556 632 0
555 -556 632 0
-555 -556 -632 0
557 558 -633 0
-557 558 633 0
557 -558 633 0
-557 -558 -633 0
559 560 -634 0
-559 560 634 0
559 -560 634 0
-559 -560 -634 0
561 562 -635 0
-561 562 635 0
561 -562 635 0
-561 -562 -635 0
563 564 -636 0
-563 564 636 0
563 -564 636 0
-563 -564 -636 0
565 566 -637 0
-565 566 637 0
565 -566 637 0
-565 -566 -637 0
567 568 -638 0
-567 568 638 0
567 -568 638 0
-567 -568 -638 0
569 570 -639 0
-569 570 639 0
569 -570 639 0
-569 -570 -639 0
571 572 -640 0
-571 572 640 0
571 -572 640 0
-571 -572 -640 0
573 574 -641 0
-573 574 641 0
573 -574 641 0
-573 -574 -641 0
575 576 -642 0
-575 576 642 0
575 -576 642 0
-575 -576 -642 0
577 578 -643 0
-577 578 643 0
577 -578 643 0
-577 -578 -643 0
579 580 -644 0
-579 580 644 0
579 -580 644 0
-579 -580 -644 0
581 582 -645 0
-581 582 645 0
581 -582 645 0
-581 -582 -645 0
583 584 -646 0
-583 584 646 0
583 -584 646 0
-583 -584 -646 0
585 586 -647 0
-585 586 647 0
585 -586 647 0
-585 -586 -647 0
587 588 -648 0
-587 588 648 0
587 -588 648 0
-587 -588 -648 0
589 590 -649 0
-589 590 649 0
589 -590 649 0
-589 -590 -649 0
591 592 -650 0
-591 592 650 0
591 -592 650 0
-591 -592 -650 0
593 594 -651 0
-593 594 651 0
593 -594 651 0
-593 -594 -651 0
595 596 -652 0
-595 596 652 0
595 -596 652 0
-595 -596 -652 0
597 598 -653 0
-597 598 653 0
597 -598 653 0
-597 -598 -653 0
599 600 -654 0
-599 600 654 0
599 -600 654 0
-599 -600 -654 0
601 602 -655 0
-601 602 655 0
601 -602 655 0
-601 -602 -655 0
603 604 -656 0
-603 604 656 0
603 -604 656 0
-603 -604 -656 0
605 606 -657 0
-605 606 657 0
605 -606 657 0
-605 -606 -657 0
607 608 -658 0
-607 608 658 0
607 -608 658 0
-607 -608 -658 0
609 610 -659 0
-609 610 659 0
609 -610 659 0
-609 -610 -659 0
611 612 -660 0
-611 612 660 0
611 -612 660 0
-611 -612 -660 0
613 614 -661 0
-613 614 661 0
613 -614 661 0
-613 -614 -661 0
615 616 -662 0
-615 616 662 0
615 -616 662 0
-615 -616 -662 0
617 618 -663 0
-617 618 663 0
617 -618 663 0
-617 -618 -663 0
619 620 -664 0
-619 620 664 0
619 -620 664 0
-619 -620 -664 0
621 622 -665 0
-621 622 665 0
621 -622 665 0
-621 -622 -665 0
623 624 -666 0
-623 624 666 0
623 -624 666 0
-623 -624 -666 0
625 626 -667 0
-625 626 667 0
625 -626 667 0
-625 -626 -667 0
627 628 -668 0
-627 628 668 0
627 -628 668 0
-627 -628 -668 0
629 630 -669 0
-629 630 669 0
629 -630 669 0
-629 -630 -669 0
631 632 -670 0
-631 632 670 0
631 -632 670 0
-631 -632 -670 0
633 634 -671 0
-633 634 671 0
633 -634 671 0
-633 -634 -671 0
635 636 -672 0
-635 636 672 0
635 -636 672 0
-635 -636 -672 0
637 638 -673 0
-637 638 673 0
637 -638 673 0
-637 -638 -673 0
639 640 -674 0
-639 640 674 0
639 -640 674 0
-639 -640 -674 0
641 642 -675 0
-641 642 675 0
641 -642 675 0
-641 -642 -675 0
643 644 -676 0
-643 644 676 0
643 -644 676 0
-643 -644 -676 0
645 646 -677 0
-645 646 677 0
645 -646 677 0
-645 -646 -677 0
647 648 -678 0
-647 648 678 0
647 -648 678 0
-647 -648 -678 0
649 650 -679 0
-649 650 679 0
649 -650 679 0
-649 -650 -679 0
651 652 -680 0
-651 652 680 0
651 -652 680 0
-651 -652 -680 0
653 654 -681 0
-653 654 681 0
653 -654 681 0
-653 -654 -681 0
655 656 -682 0
-655 656 682 0
655 -656 682 0
-655 -656 -682 0
657 658 -683 0
-657 658 683 0
657 -658 683 0
-657 -658 -683 0
659 660 -684 0
-659 660 684 0
659 -660 684 0
-659 -660 -684 0
661 662 -685 0
-661 662 685 0
661 -662 685 0
-661 -662 -685 0
663 664 -686 0
-663 664 686 0
663 -664 686 0
-663 -664 -686 0
665 666 -687 0
-665 666 687 0
665 -666 687 0
-665 -666 -687 0
667 668 -688 0
-667 668 688 0
667 -668 688 0
-667 -668 -688 0
669 670 -689 0
-669 670 689 0
669 -670 689 0
-669 -670 -689 0
671 672 -690 0
-671 672 690 0
671 -672 690 0
-671 -672 -690 0
673 674 -691 0
-673 674 691 0
673 -674 691 0
-673 -674 -691 0
675 676 -692 0
-675 676 692 0
675 -676 692 0
-675 -676 -692 0
677 678 -693 0
-677 678 693 0
677 -678 693 0
-677 -678 -693 0
679 680 -694 0
-679 680 694 0
679 -680 694 0
-679 -680 -694 0
681 682 -695 0
-681 682 695 0
681 -682 695 0
-681 -682 -695 0
683 684 -696 0
-683 684 696 0
683 -684 696 0
-683 -684 -696 0
685 686 -697 0
-685 686 697 0
685 -686 697 0
-685 -686 -697 0
687 688 -698 0
-687 688 698 0
687 -688 698 0
-687 -688 -698 0
689 690 -699 0
-689 690 699 0
689 -690 699 0
-689 -690 -699 0
691 692 -700 0
-691 692 700 0
691 -692 700 0
-691 -692 -700 0
693 694 -701 0
-693 694 701 0
693 -694 701 0
-693 -694 -701 0
695 696 -702 0
-695 696 702 0
695 -696 702 0
-695 -696 -702 0
697 353 -703 0
-697 353 703 0
697 -353 703 0
-697 -353 -703 0
698 699 -704 0
-698 699 704 0
698 -699 704 0
-698 -699 -704 0
700 701 -705 0
-700 701 705 0
700 -701 705 0
-700 -701 -705 0
702 703 -706 0
-702 703 706 0
702 -703 706 0
-702 -703 -706 0
704 705 -707 0
-704 705 707 0
704 -705 707 0
-704 -705 -707 0
707 706 -354 0
-707 706 354 0
707 -706 354 0
-707 -706 -354 0
